c Random generated cnf formula, satisfiable: false
p cnf 10 50
-10 -6 -1 0
-5 -6 -10 0
4 10 -5 0
5 4 -6 0
2 9 -3 0
4 8 -7 0
-7 -10 -4 0
2 -6 1 0
8 7 -3 0
-9 10 7 0
5 3 6 0
1 -9 4 0
-9 1 -5 0
-1 -2 -3 0
4 7 -1 0
8 9 -3 0
7 -10 -4 0
2 -4 1 0
6 9 8 0
-3 -4 1 0
6 -10 4 0
2 -7 -9 0
-4 8 1 0
-6 -5 10 0
-2 -4 -7 0
-9 -8 -1 0
8 -10 4 0
-1 7 -4 0
-6 -8 -1 0
8 -10 -5 0
-1 -10 7 0
7 -5 2 0
-10 -1 -7 0
-1 6 -9 0
-5 -1 4 0
10 3 6 0
9 7 3 0
4 -6 1 0
-3 -6 -10 0
7 -3 6 0
-9 10 1 0
4 9 1 0
3 -8 -7 0
-10 -3 5 0
9 -4 -3 0
4 -9 -5 0
9 -7 3 0
-8 -5 -4 0
1 -2 9 0
-6 10 -8 0
